(declare-fun temp3902_1 () (_ BitVec 64))
(declare-fun temp3902_2 () (_ BitVec 64))
(declare-fun var73602 () (_ BitVec 64))
(declare-fun k!0 () Bool)
(declare-fun ARGNAME_x_NAMEEND_DIM () (_ BitVec 64))
(declare-fun temp3902_3 () (_ BitVec 64))
(declare-fun var66250 () (_ BitVec 64))
(declare-fun temp3902_4 () (_ BitVec 64))
(declare-fun temp3902_5 () (_ BitVec 64))
(declare-fun ARGNAME_x_NAMEEND_DIMSIZE () (Array (_ BitVec 64) (_ BitVec 64)))
(declare-fun temp3902_6 () (_ BitVec 64))
(declare-fun temp3902_7 () (_ BitVec 64))
(declare-fun temp3902_8 () (_ BitVec 64))
(declare-fun temp3902_9 () (_ BitVec 64))
(declare-fun temp3902_10 () (_ BitVec 64))
(declare-fun temp3902_11 () (_ BitVec 64))
(declare-fun temp3902_12 () (_ BitVec 64))
(declare-fun temp3902_13 () (_ BitVec 64))
(declare-fun temp3902_14 () (_ BitVec 64))
(declare-fun temp3902_15 () (_ BitVec 64))
(declare-fun temp3902_16 () (_ BitVec 64))
(declare-fun temp3902_17 () (_ BitVec 64))
(declare-fun temp3902_18 () (_ BitVec 64))
(declare-fun temp3902_19 () (_ BitVec 64))
(declare-fun temp3902_20 () (_ BitVec 64))
(declare-fun temp3902_21 () (_ BitVec 64))
(declare-fun temp3902_22 () (_ BitVec 64))
(declare-fun temp3902_23 () (_ BitVec 64))
(declare-fun temp3902_24 () (_ BitVec 64))
(declare-fun var73613 () (_ BitVec 64))
(declare-fun temp3902_25 () (_ BitVec 64))
(declare-fun temp3902_26 () (_ BitVec 64))
(declare-fun temp3902_27 () (_ BitVec 64))
(declare-fun temp3902_28 () (_ BitVec 64))
(declare-fun var73640 () (_ BitVec 64))
(declare-fun temp3902_30 () (_ BitVec 64))
(declare-fun temp3902_29 () (_ BitVec 64))
(declare-fun temp3902_31 () (_ BitVec 64))
(declare-fun var467142 () (_ BitVec 64))
(declare-fun temp3902_32 () (_ BitVec 64))
(declare-fun var1253582 () (_ BitVec 64))
(declare-fun var1253583 () (_ BitVec 64))
(declare-fun temp3902_33 () (_ BitVec 64))
(declare-fun var1311851 () (_ BitVec 64))
(declare-fun temp3902_35 () (_ BitVec 64))
(declare-fun temp3902_34 () (_ BitVec 64))
(declare-fun temp3902_36 () (_ BitVec 64))
(declare-fun var1712369 () (_ BitVec 64))
(declare-fun temp3902_37 () (_ BitVec 64))
(declare-fun var1712373 () (_ BitVec 64))
(declare-fun temp3902_38 () (_ BitVec 64))
(declare-fun var1712415 () (_ BitVec 64))
(declare-fun temp3902_39 () (_ BitVec 64))
(declare-fun temp3902_41 () (_ BitVec 64))
(declare-fun temp3902_40 () (_ BitVec 64))
(declare-fun temp3902_42 () (_ BitVec 64))
(declare-fun var2302193 () (_ BitVec 64))
(declare-fun temp3902_43 () (_ BitVec 64))
(declare-fun var2302197 () (_ BitVec 64))
(declare-fun temp3902_44 () (_ BitVec 64))
(declare-fun var2302227 () (_ BitVec 64))
(declare-fun temp3902_45 () (_ BitVec 64))
(declare-fun temp3902_47 () (_ BitVec 64))
(declare-fun temp3902_46 () (_ BitVec 64))
(declare-fun temp3902_48 () (_ BitVec 64))
(declare-fun var2826481 () (_ BitVec 64))
(declare-fun temp3902_49 () (_ BitVec 64))
(declare-fun var2826485 () (_ BitVec 64))
(declare-fun temp3902_50 () (_ BitVec 64))
(declare-fun var2826515 () (_ BitVec 64))
(declare-fun temp3902_51 () (_ BitVec 64))
(declare-fun var2826527 () (_ BitVec 64))
(declare-fun temp3902_52 () (_ BitVec 64))
(declare-fun temp3902_53 () (_ BitVec 64))
(declare-fun temp3902_54 () (_ BitVec 64))
(declare-fun ARGNAME_increasing_NAMEEND () (_ BitVec 64))
(assert (= temp3902_1 #x0000000000000001))
(assert (= var73602
   (ite (= ARGNAME_x_NAMEEND_DIM temp3902_1)
        #x0000000000000001
        #x0000000000000000)))
(assert (= temp3902_2 #x0000000000000001))
(assert (= var73602 temp3902_2))
(assert (= temp3902_3 #x0000000000000000))
(assert (= var66250 temp3902_3))
(assert (= temp3902_4 #x0000000000000000))
(assert (= temp3902_5 temp3902_4))
(assert (= temp3902_6 (select ARGNAME_x_NAMEEND_DIMSIZE temp3902_5)))
(assert (= temp3902_7 #x0000000000000001))
(assert (= temp3902_8 temp3902_7))
(assert (= temp3902_9 (select ARGNAME_x_NAMEEND_DIMSIZE temp3902_8)))
(assert (= temp3902_10 #x0000000000000002))
(assert (= temp3902_11 temp3902_10))
(assert (= temp3902_12 (select ARGNAME_x_NAMEEND_DIMSIZE temp3902_11)))
(assert (= temp3902_13 #x0000000000000003))
(assert (= temp3902_14 temp3902_13))
(assert (= temp3902_15 (select ARGNAME_x_NAMEEND_DIMSIZE temp3902_14)))
(assert (= temp3902_16 #x0000000000000004))
(assert (= temp3902_17 temp3902_16))
(assert (= temp3902_18 (select ARGNAME_x_NAMEEND_DIMSIZE temp3902_17)))
(assert (= temp3902_19 #x0000000000000005))
(assert (= temp3902_20 temp3902_19))
(assert (= temp3902_21 (select ARGNAME_x_NAMEEND_DIMSIZE temp3902_20)))
(assert (= temp3902_22 #x0000000000000000))
(assert (= temp3902_23
   (ite (bvslt var66250 temp3902_22)
        (bvadd ARGNAME_x_NAMEEND_DIM var66250)
        var66250)))
(assert (= temp3902_24 (select ARGNAME_x_NAMEEND_DIMSIZE temp3902_23)))
(assert (= var73613 temp3902_24))
(assert (bvslt (ite (bvslt var66250 temp3902_22)
            (bvadd ARGNAME_x_NAMEEND_DIM var66250)
            var66250)
       ARGNAME_x_NAMEEND_DIM))
(assert (= temp3902_25 #x0000000000000000))
(assert (= var66250 temp3902_25))
(assert (= temp3902_26 #x0000000000000000))
(assert (= temp3902_27
   (ite (bvslt var66250 temp3902_26)
        (bvadd ARGNAME_x_NAMEEND_DIM var66250)
        var66250)))
(assert (= temp3902_28 (select ARGNAME_x_NAMEEND_DIMSIZE temp3902_27)))
(assert (= var73640 temp3902_28))
(assert (bvslt (ite (bvslt var66250 temp3902_26)
            (bvadd ARGNAME_x_NAMEEND_DIM var66250)
            var66250)
       ARGNAME_x_NAMEEND_DIM))
(assert (= temp3902_30 #x0000000000000002))
(assert (= temp3902_29 temp3902_30))
(assert (= temp3902_31 #x0000000000000004))
(assert (= var467142 temp3902_31))
(assert (= temp3902_32 #x0000000000000001))
(assert (= var1253582 temp3902_32))
(assert (= var1253583 var66250))
(assert (= temp3902_33 #x0000000000000001))
(assert (= var1311851 temp3902_33))
(assert (= temp3902_35 #x0000000000000001))
(assert (= temp3902_34 temp3902_35))
(assert (= temp3902_36 #x0000000000000001))
(assert (= var1712369 temp3902_36))
(assert (= temp3902_37 #x0000000000000001))
(assert (= var1712373 temp3902_37))
(assert (= temp3902_38 #x0000000000000000))
(assert (= var1712415 temp3902_38))
(assert (= temp3902_39 #x0000000000000000))
(assert (= var1712415 temp3902_39))
(assert (= temp3902_41 #x0000000000000001))
(assert (= temp3902_40 temp3902_41))
(assert (= temp3902_42 #x0000000000000001))
(assert (= var2302193 temp3902_42))
(assert (= temp3902_43 #x0000000000000001))
(assert (= var2302197 temp3902_43))
(assert (= temp3902_44 #x0000000000000000))
(assert (= var2302227 temp3902_44))
(assert (= temp3902_45 #x0000000000000000))
(assert (= var2302227 temp3902_45))
(assert (= temp3902_47 #x0000000000000001))
(assert (= temp3902_46 temp3902_47))
(assert (= temp3902_48 #x0000000000000001))
(assert (= var2826481 temp3902_48))
(assert (= temp3902_49 #x0000000000000001))
(assert (= var2826485 temp3902_49))
(assert (= temp3902_50 #x0000000000000000))
(assert (= var2826515 temp3902_50))
(assert (= temp3902_51 #x0000000000000000))
(assert (= var2826527 temp3902_51))
(assert (= temp3902_52 #x0000000000000000))
(assert (= var2826527 temp3902_52))
(assert (= temp3902_53 #x0000000000000000))
(assert (= var2826515 temp3902_53))
(assert (= temp3902_54 #x0000000000000001))
(assert (= ARGNAME_increasing_NAMEEND temp3902_54))
(model-add temp3902_1 () (_ BitVec 64) #x0000000000000001)
(model-add temp3902_2 () (_ BitVec 64) #x0000000000000001)
(model-add var73602 () (_ BitVec 64) #x0000000000000001)
(model-del k!0)
(model-add ARGNAME_x_NAMEEND_DIM
           ()
           (_ BitVec 64)
           (ite k!0 #x0000000000000001 (bvnot #x0000000000000001)))



